p cnf 100 140
-11 -86 -56 0
61 57 -17 0
-49 39 -95 0
41 -99 -74 0
-44 -58 -96 0
-20 91 42 0
56 -55 -26 0
6 -66 45 0
32 -11 25 0
76 -58 37 0
56 32 -18 0
37 9 16 0
78 -45 4 0
-77 47 6 0
85 46 61 0
-12 90 -76 0
32 70 76 0
-15 79 -72 0
-36 48 -3 0
-91 35 3 0
-6 100 10 0
26 68 16 0
-87 21 93 0
-59 98 3 0
-44 -28 -82 0
-55 21 40 0
-15 27 88 0
-63 -34 -22 0
32 -89 -28 0
31 10 -39 0
51 -15 13 0
-13 -18 29 0
87 39 -48 0
-85 7 -5 0
21 61 -99 0
2 75 15 0
48 -64 -15 0
68 -18 88 0
63 59 -73 0
-34 -27 84 0
6 -81 12 0
-96 17 8 0
-76 80 -26 0
-89 42 -22 0
65 -96 42 0
-8 -12 22 0
-48 44 18 0
70 -99 -4 0
-41 82 45 0
-47 -65 -66 0
34 -73 25 0
-2 62 32 0
-57 56 29 0
12 63 79 0
54 -20 -73 0
25 27 -54 0
47 -36 -94 0
20 -50 -84 0
-39 55 34 0
15 -9 -92 0
71 8 -79 0
-30 -100 49 0
10 70 -46 0
-21 39 -94 0
-71 -83 -15 0
-37 -5 88 0
65 35 53 0
-19 -86 -78 0
39 -56 61 0
34 -7 -13 0
-42 -43 -93 0
-79 -44 -87 0
-31 84 18 0
-6 24 -94 0
-60 -87 18 0
20 -73 -52 0
-27 88 -37 0
-53 75 4 0
7 -76 -79 0
-45 78 68 0
-5 65 32 0
-71 16 51 0
90 -47 69 0
-58 -81 -32 0
18 47 -86 0
-37 -83 20 0
90 66 -93 0
-52 64 18 0
-61 10 -20 0
-18 91 54 0
24 55 -11 0
22 -97 46 0
64 -100 -70 0
-7 -57 -82 0
-100 59 -46 0
-98 63 43 0
-93 73 -3 0
-93 -85 -6 0
32 40 -94 0
-94 -78 -76 0
x -3 7 9 -10 -11 -22 -23 -24 -26 27 -28 34 -35 36 -39 -40 41 -44 -46 -47 -52 55 -56 57 -59 -60 -61 -63 64 -67 70 71 -72 -73 77 78 79 82 83 88 -91 -92 94 98 -100 0
x 2 4 -5 6 7 8 9 10 -11 13 15 -17 19 -22 23 24 -26 29 30 33 34 35 -36 -39 40 -43 47 -49 51 -52 -53 54 55 -56 -59 62 -63 -64 -66 68 -70 71 -73 74 75 76 -78 79 81 -82 86 87 -89 -90 -95 97 99 -100 0
x 5 -6 -7 -8 -9 -11 -13 -15 16 18 21 -22 23 -24 -27 29 32 33 -34 -35 36 37 -42 -43 -46 50 -51 -52 -54 -57 -59 60 62 64 -66 67 69 70 73 -74 75 77 -78 80 83 -86 89 92 -93 96 0
x 1 -3 -4 -5 6 7 -11 -12 13 17 -19 -21 -25 28 29 -30 -31 33 39 -41 44 45 -46 -48 49 53 54 -55 57 -61 -63 66 68 70 -72 -73 74 75 -79 80 81 82 -83 87 89 -90 -95 96 98 0
x -2 3 5 -6 9 -11 -12 -19 21 -25 -26 -29 30 -35 36 37 38 40 -43 -44 -45 -46 -47 49 -50 53 54 55 -57 58 -62 -63 -64 65 66 67 68 -69 -71 -72 79 -80 -85 -87 89 92 -93 -95 97 99 0
x -2 5 -6 -9 -13 -15 -19 22 -23 -25 27 29 -31 -33 -34 35 36 -39 -45 -47 -49 -51 57 -58 -59 60 -61 -64 -65 -66 -67 -71 -72 -74 80 83 87 89 91 -93 94 -95 97 -98 0
x 1 2 5 -10 11 12 -13 14 -15 -16 19 22 -24 -25 -27 28 -29 -30 -31 34 38 -42 -43 -44 46 -48 49 50 52 -53 -54 55 -56 57 -61 64 -65 -67 69 70 -74 78 -81 83 -84 87 88 -89 91 95 -96 97 100 0
x -1 -2 4 -6 -7 -9 11 -18 23 26 -30 -34 -35 -37 41 42 49 53 54 55 -56 -57 59 60 -64 66 67 68 74 -75 -77 -78 80 81 -82 -83 84 85 -89 -90 -91 -92 95 -96 -97 -99 -100 0
x -1 -2 3 -6 7 -8 -12 -14 -15 -16 18 20 25 -26 -27 29 -30 31 -32 33 34 -35 -36 38 -39 -40 41 -43 48 -49 -52 54 60 -63 -64 65 -67 -68 70 72 -73 76 -78 -80 82 90 94 -95 -98 0
x -2 -3 5 8 13 16 -18 20 -21 -24 -26 -27 -29 -30 -31 32 33 36 -37 38 -43 45 49 -50 54 -57 -58 -67 -70 71 -72 73 -74 -76 -79 82 84 -85 -86 -87 -89 91 -93 -95 97 98 99 0
x 1 2 -4 -5 -7 -10 -12 -14 17 -18 19 23 26 28 -30 -32 35 36 -39 40 -41 42 -44 -45 -47 -50 52 55 -56 -57 58 59 60 -61 -63 -65 66 -67 -69 70 71 73 -76 78 79 80 -81 -82 83 84 85 89 94 -95 0
x 1 3 -4 -11 -14 15 -18 21 -23 24 -26 27 -29 31 33 34 -35 -36 37 38 -41 -44 45 -46 47 -48 -49 52 -53 58 59 -61 -62 -63 64 66 -69 -73 76 77 -79 -80 -81 82 -86 87 88 -89 -90 97 99 0
x 2 4 7 10 12 13 14 21 22 -24 25 -26 27 -28 29 30 31 -34 35 36 37 38 39 40 44 45 -48 49 52 -53 -55 -56 -61 -62 65 -66 -67 68 -72 73 74 75 76 -78 -79 80 -81 82 83 -84 -87 -88 -89 90 92 93 -96 -98 -99 100 0
x -1 -13 15 -16 -18 19 -20 -22 -23 24 25 -26 29 30 34 -35 -36 -38 -40 -41 42 -45 -46 -48 -51 54 56 59 -60 -61 62 63 -64 -66 67 68 -69 71 72 74 75 -79 81 -83 -86 87 -89 91 -92 94 95 -96 98 0
x 1 -4 -5 -7 8 -9 10 12 15 17 -27 29 36 -38 -39 -40 41 44 -45 46 -50 -51 -52 -57 -58 62 63 64 72 -75 -76 -78 -81 84 -86 -87 89 90 -92 -96 97 0
x -1 -3 -4 -8 10 11 -12 -13 15 -17 -18 20 -25 26 27 -28 -29 -30 31 33 -35 -36 42 -45 48 51 54 -58 -59 -61 62 63 65 -66 68 72 -74 80 82 83 -87 92 96 -98 99 0
x 2 -3 5 -7 -9 15 16 -20 22 -23 24 -25 -27 28 29 30 -32 35 -38 -40 42 43 -45 46 48 -49 51 52 53 54 55 -56 58 -59 60 61 -63 -64 67 69 70 72 75 -77 -78 -79 -80 -81 -82 -83 -85 86 87 -89 92 94 0
x 1 -8 -12 14 -15 16 17 -18 -20 22 -25 -28 29 -31 -37 38 39 40 -42 43 45 47 -49 -50 51 52 55 57 58 -59 62 63 64 -67 -68 72 -75 -77 -78 81 -83 -87 90 -91 93 -94 95 97 -99 100 0
x 1 -2 5 -9 -11 12 -13 -14 17 19 -21 22 23 -25 -26 27 -29 -30 32 34 -35 -36 38 -39 -42 -46 47 50 -56 59 61 -63 64 -67 68 71 -72 73 74 76 -77 -81 -82 84 -86 89 -90 95 -98 -100 0
x -1 -3 -6 7 -8 -11 13 14 -15 16 -20 -23 24 -25 26 -28 29 -33 35 -37 -39 41 -45 47 -48 51 -52 -54 -55 56 -57 58 59 60 -62 64 -70 -71 -73 76 -78 81 84 -89 90 91 -92 -93 95 -96 100 0
x -2 3 5 -6 -7 -8 -11 18 21 -23 -24 26 -27 -29 -30 -31 32 -33 -34 -37 38 -42 -43 -44 46 -47 -51 -53 57 59 -60 -63 -66 67 -69 -70 -71 73 -74 78 80 81 -89 -90 91 97 -100 0
x -3 4 5 -6 -7 -10 13 -14 15 16 -17 -20 -24 25 26 27 -28 -31 32 -34 36 -38 39 40 41 -43 44 -45 46 -47 -48 51 -53 58 61 62 65 66 67 70 -73 74 75 -78 79 80 -82 86 89 92 96 99 0
x -3 -6 7 8 13 16 17 -19 22 23 25 26 -27 32 -33 35 36 38 40 41 42 -44 45 -46 -49 -50 -51 -52 -53 -54 55 56 59 60 61 62 63 -65 66 -67 68 69 -70 -71 77 -80 -81 86 -87 89 93 94 95 -96 97 -98 -99 100 0
x 1 2 -4 -5 6 9 -14 -15 -17 -18 20 -21 24 -26 29 30 -34 -36 37 38 -39 40 -41 -42 -43 44 -47 -48 49 50 -51 -53 -54 56 57 -59 -60 -63 -65 69 70 -71 -72 78 -83 84 86 -87 88 93 95 -97 0
x 1 -5 -6 -7 -8 -9 11 13 -14 -15 -16 -18 -19 21 22 23 25 -26 27 -28 -30 33 35 36 37 -38 39 41 -44 45 47 -48 49 51 -52 -54 59 -62 67 70 71 -72 77 -79 -82 -84 85 -86 -87 91 92 95 96 -99 100 0
x -1 2 -3 5 -7 -8 -12 17 18 21 -27 -28 -29 30 -32 33 34 35 36 -37 -41 -42 -43 -46 47 -49 50 -51 -55 56 57 -59 -60 -65 67 68 -69 -74 78 79 81 -83 -84 -85 86 89 90 -92 -94 -99 0
x 5 8 15 -17 -19 -20 21 -23 -24 25 27 -28 29 -31 32 -34 35 38 41 43 48 -49 -51 -53 -63 -65 -67 -68 69 70 -72 -73 -75 76 77 -78 80 88 -90 -93 -94 95 -98 0
x 3 10 11 -12 15 -19 20 -24 26 -27 30 38 -40 -41 -42 -44 -45 -50 51 -54 -56 58 60 61 -62 63 -64 -66 67 -68 69 -71 -73 -77 -78 81 82 -84 -87 -89 -95 -97 99 0
x -1 2 -3 8 -10 15 16 -17 -19 -21 26 -27 -31 -34 35 36 37 38 39 40 45 46 48 50 -53 -54 -61 63 64 65 -66 67 68 71 -77 -79 -82 83 -84 -86 90 93 94 99 0
x -3 -4 -5 -6 10 11 -12 13 14 -19 22 -24 -28 29 -30 -32 -33 -37 -38 39 -40 -41 42 43 -44 -45 -47 -49 -50 -51 52 -54 -55 -57 59 61 62 -63 64 -67 69 -70 71 -72 74 75 76 -77 -78 79 87 -88 -91 92 93 -95 97 -99 -100 0
x 4 5 -10 -17 -21 -27 -29 -33 37 38 42 -44 49 50 51 52 -53 -54 56 -63 -66 -67 -68 69 70 -71 74 76 -77 -78 82 84 85 89 91 -92 -93 97 98 99 0
x -1 -2 3 5 -6 -7 8 -9 -16 17 23 25 -26 -27 29 -33 35 36 37 -39 -40 42 -44 46 47 -49 52 53 54 55 56 57 -59 -60 -61 -62 65 -66 68 -69 70 71 -76 78 79 -80 82 83 86 87 89 -91 93 -94 -95 -97 -99 0
x 2 3 5 6 7 -8 12 13 14 -15 18 19 -21 23 25 29 30 32 -33 -38 39 40 -42 -44 -45 46 48 49 -52 53 54 -56 57 -58 -60 -63 -65 66 -67 72 73 75 79 -82 84 87 -88 89 -90 91 -92 94 98 -100 0
x -2 4 -6 -8 -10 -11 12 -13 -14 -15 -16 -17 -20 -29 31 33 -35 -37 -38 -42 -46 -48 50 51 57 -59 60 61 -62 63 64 65 -67 -70 -72 -74 -75 76 79 84 -90 -91 -94 -95 -96 98 -99 -100 0
x -2 7 9 10 15 -17 20 21 -22 -25 26 -27 -28 -29 30 -31 33 34 -37 -41 43 -45 -48 49 50 52 -55 56 -57 -58 60 63 64 -65 66 67 68 -73 -77 78 80 82 85 -87 88 91 -92 -93 -97 98 99 0
x 1 5 -6 7 -9 10 -11 -12 -15 -21 -22 -23 -25 -34 36 41 42 -43 -47 49 50 51 -52 53 -54 -55 56 61 -63 65 66 67 -70 71 72 76 78 -79 -80 -81 -82 -83 89 91 92 93 95 -97 -98 99 -100 0
x -2 -9 13 -14 19 21 -22 26 -27 -32 33 40 42 44 -50 -54 56 -57 -58 -59 60 -61 62 64 -65 66 -67 68 71 -72 74 -75 -81 84 86 89 90 94 -95 -96 -97 98 -100 0
x 1 2 3 -5 -12 14 15 18 -21 -22 24 27 -28 -31 34 36 37 -39 -40 44 -45 -47 49 -50 -51 52 -53 54 -58 64 65 66 68 69 -71 72 -73 74 -75 -76 77 78 -79 84 -86 89 91 -92 -95 96 -97 98 -99 100 0
x 2 11 -12 14 -15 -16 17 18 -21 23 -24 27 28 32 33 34 -35 -39 -41 -42 -43 -44 47 48 54 55 56 57 -58 -61 62 63 -64 -65 -66 -67 69 -70 -72 -73 -75 79 -82 -84 -85 87 -88 -89 91 -93 94 96 -98 99 0
x -1 4 -5 11 -15 17 19 20 21 23 25 -26 -27 29 32 -34 -36 -37 -39 -41 -42 -45 -47 50 52 -53 -54 56 64 66 67 68 70 -71 -72 74 76 77 78 -84 -85 89 -94 -97 -98 99 0
